
Gurobi 10.0.1 (win64) logging started Fri Oct  6 16:53:19 2023

Set parameter LogFile to value "./results//log/URT_07_makespan_heurTrue.log"
Gurobi Optimizer version 10.0.1 build v10.0.1rc0 (win64)

CPU model: AMD Ryzen 7 3700X 8-Core Processor, instruction set [SSE2|AVX|AVX2]
Thread count: 8 physical cores, 16 logical processors, using up to 16 threads

Optimize a model with 134 rows, 118 columns and 477 nonzeros
Model fingerprint: 0x9e1961de
Variable types: 0 continuous, 118 integer (99 binary)
Coefficient statistics:
  Matrix range     [1e+00, 1e+07]
  Objective range  [1e+00, 1e+00]
  Bounds range     [1e+00, 1e+00]
  RHS range        [1e+00, 3e+07]

User MIP start did not produce a new incumbent solution
User MIP start violates constraint initial_start_time_job1_stage0_machine4_constraint by 1.000000000

Found heuristic solution: objective 56.0000000
Presolve removed 28 rows and 65 columns
Presolve time: 0.01s
Presolved: 106 rows, 53 columns, 420 nonzeros
Variable types: 0 continuous, 53 integer (35 binary)

Root relaxation: objective 2.800000e+01, 19 iterations, 0.00 seconds (0.00 work units)

    Nodes    |    Current Node    |     Objective Bounds      |     Work
 Expl Unexpl |  Obj  Depth IntInf | Incumbent    BestBd   Gap | It/Node Time

     0     0   28.00000    0    8   56.00000   28.00000  50.0%     -    0s
H    0     0                      47.0000000   28.00000  40.4%     -    0s
H    0     0                      43.0000000   28.00000  34.9%     -    0s
     0     0   29.00000    0    3   43.00000   29.00000  32.6%     -    0s
     0     0   29.00000    0   11   43.00000   29.00000  32.6%     -    0s
     0     0   29.00000    0   13   43.00000   29.00000  32.6%     -    0s
     0     0   29.39583    0   10   43.00000   29.39583  31.6%     -    0s
     0     0   29.47917    0   20   43.00000   29.47917  31.4%     -    0s
     0     0   29.47917    0   20   43.00000   29.47917  31.4%     -    0s
     0     0   30.17242    0   20   43.00000   30.17242  29.8%     -    0s
     0     0   30.17242    0   20   43.00000   30.17242  29.8%     -    0s
     0     0   30.33706    0   24   43.00000   30.33706  29.4%     -    0s
     0     0   30.34705    0   20   43.00000   30.34705  29.4%     -    0s
     0     0   30.35912    0   24   43.00000   30.35912  29.4%     -    0s
     0     0   30.36902    0   25   43.00000   30.36902  29.4%     -    0s
     0     0   30.36945    0   25   43.00000   30.36945  29.4%     -    0s
     0     0   30.37494    0   25   43.00000   30.37494  29.4%     -    0s
     0     0   30.38027    0   25   43.00000   30.38027  29.3%     -    0s
     0     0   30.38027    0   22   43.00000   30.38027  29.3%     -    0s
     0     0   30.38740    0   26   43.00000   30.38740  29.3%     -    0s
     0     0   30.38823    0   25   43.00000   30.38823  29.3%     -    0s
     0     0   30.38823    0   25   43.00000   30.38823  29.3%     -    0s
     0     0   30.44391    0   20   43.00000   30.44391  29.2%     -    0s
     0     0   30.44391    0   24   43.00000   30.44391  29.2%     -    0s
     0     0   30.44391    0   23   43.00000   30.44391  29.2%     -    0s
     0     0   30.44391    0   23   43.00000   30.44391  29.2%     -    0s
     0     0   30.44391    0   19   43.00000   30.44391  29.2%     -    0s
     0     0   30.44391    0   23   43.00000   30.44391  29.2%     -    0s
     0     0   30.44391    0   19   43.00000   30.44391  29.2%     -    0s
     0     0   30.44391    0   19   43.00000   30.44391  29.2%     -    0s
     0     2   30.44391    0   19   43.00000   30.44391  29.2%     -    0s

Cutting planes:
  Learned: 18
  Gomory: 2
  Implied bound: 4
  MIR: 25
  StrongCG: 1
  Flow cover: 5
  Inf proof: 1
  Mod-K: 2

Explored 1458 nodes (1976 simplex iterations) in 0.76 seconds (0.05 work units)
Thread count was 16 (of 16 available processors)

Solution count 3: 43 47 56 

Optimal solution found (tolerance 1.00e-04)
Best objective 4.300000000000e+01, best bound 4.300000000000e+01, gap 0.0000%
Warning: constraint name "precedence between 0,0 to 0,2 if x_[0,0,0,2,3]=0, i.e. 0,2 before 0,0" has a space
Warning: constraint name "precedence between 0,0 to 0,2 if x_[0,0,0,2,3]=0, i.e. 0,2 before 0,0" has a space
Warning: default constraint names used to write mps file
